p cnf 493 1867
c t mc
3 -1 0
3 -2 0
1 2 -3 0
-5 -3 0
-5 -4 0
3 4 5 0
-9 -7 0
-9 -8 0
7 8 9 0
10 -9 0
10 2 0
9 -2 -10 0
10 -11 -12 0
-10 11 -12 0
10 11 12 0
-10 -11 12 0
6 -12 -13 0
-6 12 -13 0
6 12 13 0
-6 -12 13 0
-14 -5 0
-14 13 0
5 -13 14 0
-17 -11 -18 0
17 11 -18 0
-17 11 18 0
17 -11 18 0
-16 18 -19 0
16 -18 -19 0
-16 -18 19 0
16 18 19 0
-15 -19 -20 0
15 19 -20 0
-15 19 20 0
15 -19 20 0
22 -20 0
22 -21 0
20 21 -22 0
-23 -22 0
-23 10 0
22 -10 23 0
-24 1 0
-24 -2 0
-1 2 24 0
-25 24 0
-25 -9 0
-24 9 25 0
26 -11 0
26 18 0
11 -18 -26 0
-26 11 -27 0
26 -11 -27 0
-26 -11 27 0
26 11 27 0
28 -27 0
28 -8 0
27 8 -28 0
25 -28 -29 0
-25 28 -29 0
25 28 29 0
-25 -28 29 0
-30 23 0
-30 -29 0
-23 29 30 0
31 -21 0
31 20 0
21 -20 -31 0
-32 31 0
-32 31 0
-31 32 0
33 -13 0
33 32 0
13 -32 -33 0
-34 -16 0
-34 12 0
16 -12 34 0
35 -33 0
35 -34 0
33 34 -35 0
35 24 -36 0
-35 -24 -36 0
35 -24 36 0
-35 24 36 0
-37 -30 0
-37 -36 0
30 36 37 0
38 8 0
38 -13 0
-8 13 -38 0
-38 -22 -39 0
38 22 -39 0
-38 22 39 0
38 -22 39 0
37 -39 -40 0
-37 39 -40 0
37 39 40 0
-37 -39 40 0
-41 13 0
-41 40 0
-13 -40 41 0
14 41 -42 0
-14 -41 -42 0
14 -41 42 0
-14 41 42 0
22 5 -43 0
-22 -5 -43 0
22 -5 43 0
-22 5 43 0
-6 27 -44 0
6 -27 -44 0
-6 -27 44 0
6 27 44 0
45 -38 -46 0
-45 38 -46 0
45 38 46 0
-45 -38 46 0
47 44 0
47 -46 0
-44 46 -47 0
-43 47 -48 0
43 -47 -48 0
-43 -47 48 0
43 47 48 0
50 16 0
50 49 0
-16 -49 -50 0
50 49 -51 0
-50 -49 -51 0
50 -49 51 0
-50 49 51 0
52 -48 0
52 -51 0
48 51 -52 0
-53 42 0
-53 52 0
-42 -52 53 0
54 -20 0
54 -21 0
20 21 -54 0
55 -9 0
55 -54 0
9 54 -55 0
24 -4 -56 0
-24 4 -56 0
24 4 56 0
-24 -4 56 0
-56 -13 -57 0
56 13 -57 0
-56 13 57 0
56 -13 57 0
-58 26 0
-58 -57 0
-26 57 58 0
60 59 0
60 -16 0
-59 16 -60 0
-61 -58 0
-61 60 0
58 -60 61 0
-62 -30 0
-62 -61 0
30 61 62 0
63 -55 0
63 -62 0
55 62 -63 0
-65 -47 0
-65 64 0
47 -64 65 0
-66 22 0
-66 65 0
-22 -65 66 0
67 -8 0
67 -54 0
8 54 -67 0
-66 67 -68 0
66 -67 -68 0
-66 -67 68 0
66 67 68 0
69 63 0
69 68 0
-63 -68 -69 0
-70 -10 0
-70 33 0
10 -33 70 0
71 -61 0
71 70 0
61 -70 -71 0
71 -21 -72 0
-71 21 -72 0
71 21 72 0
-71 -21 72 0
73 26 0
73 -12 0
-26 12 -73 0
-73 46 -74 0
73 -46 -74 0
-73 -46 74 0
73 46 74 0
75 74 0
75 -65 0
-74 65 -75 0
76 18 0
76 16 0
-18 -16 -76 0
77 -76 0
77 20 0
76 -20 -77 0
-78 25 0
-78 77 0
-25 -77 78 0
79 -22 0
79 78 0
22 -78 -79 0
-80 43 0
-80 79 0
-43 -79 80 0
19 -22 -81 0
-19 22 -81 0
19 22 81 0
-19 -22 81 0
-82 3 0
-82 81 0
-3 -81 82 0
-83 80 0
-83 -82 0
-80 82 83 0
84 -7 0
84 83 0
7 -83 -84 0
-85 -75 0
-85 -84 0
75 84 85 0
87 -86 0
87 -25 0
86 25 -87 0
-87 75 -88 0
87 -75 -88 0
-87 -75 88 0
87 75 88 0
89 47 0
89 46 0
-47 -46 -89 0
89 90 -91 0
-89 -90 -91 0
89 -90 91 0
-89 90 91 0
-92 88 0
-92 91 0
-88 -91 92 0
-93 -11 0
-93 -64 0
11 64 93 0
92 93 -94 0
-92 -93 -94 0
92 -93 94 0
-92 93 94 0
-95 -85 0
-95 -94 0
85 94 95 0
-96 72 0
-96 -95 0
-72 95 96 0
69 -96 -97 0
-69 96 -97 0
69 96 97 0
-69 -96 97 0
-53 97 -98 0
53 -97 -98 0
-53 -97 98 0
53 97 98 0
-99 -4 0
-99 -9 0
4 9 99 0
99 12 -100 0
-99 -12 -100 0
99 -12 100 0
-99 12 100 0
-101 -37 0
-101 -100 0
37 100 101 0
-3 77 -102 0
3 -77 -102 0
-3 -77 102 0
3 77 102 0
-102 -13 -103 0
102 13 -103 0
-102 13 103 0
102 -13 103 0
104 -79 0
104 -20 0
79 20 -104 0
103 -104 -105 0
-103 104 -105 0
103 104 105 0
-103 -104 105 0
106 -11 0
106 -46 0
11 46 -106 0
107 106 0
107 -64 0
-106 64 -107 0
44 107 -108 0
-44 -107 -108 0
44 -107 108 0
-44 107 108 0
-28 -90 -109 0
28 90 -109 0
-28 90 109 0
28 -90 109 0
-110 -108 0
-110 109 0
108 -109 110 0
-111 -36 0
-111 -63 0
36 63 111 0
110 -111 -112 0
-110 111 -112 0
110 111 112 0
-110 -111 112 0
-90 27 -113 0
90 -27 -113 0
-90 -27 113 0
90 27 113 0
113 -2 -114 0
-113 2 -114 0
113 2 114 0
-113 -2 114 0
-115 -114 0
-115 37 0
114 -37 115 0
116 115 0
116 -66 0
-115 66 -116 0
57 70 -117 0
-57 -70 -117 0
57 -70 117 0
-57 70 117 0
-90 73 -118 0
90 -73 -118 0
-90 -73 118 0
90 73 118 0
119 -7 0
119 -70 0
7 70 -119 0
-120 118 0
-120 119 0
-118 -119 120 0
121 117 0
121 -120 0
-117 120 -121 0
122 -86 0
122 -121 0
86 121 -122 0
116 -122 -123 0
-116 122 -123 0
116 122 123 0
-116 -122 123 0
-112 -123 -124 0
112 123 -124 0
-112 123 124 0
112 -123 124 0
-125 -105 0
-125 124 0
105 -124 125 0
101 125 -126 0
-101 -125 -126 0
101 -125 126 0
-101 125 126 0
-5 -67 -127 0
5 67 -127 0
-5 67 127 0
5 -67 127 0
-17 -79 -128 0
17 79 -128 0
-17 79 128 0
17 -79 128 0
-93 -128 -129 0
93 128 -129 0
-93 128 129 0
93 -128 129 0
130 127 0
130 129 0
-127 -129 -130 0
131 -32 0
131 -130 0
32 130 -131 0
132 -126 0
132 -131 0
126 131 -132 0
68 25 -133 0
-68 -25 -133 0
68 -25 133 0
-68 25 133 0
135 -12 0
135 134 0
12 -134 -135 0
-136 -91 0
-136 -22 0
91 22 136 0
-137 135 0
-137 -136 0
-135 136 137 0
-138 -137 0
-138 -113 0
137 113 138 0
139 80 0
139 -19 0
-80 19 -139 0
-140 138 0
-140 -139 0
-138 139 140 0
141 -133 0
141 -140 0
133 140 -141 0
43 -68 -142 0
-43 68 -142 0
43 68 142 0
-43 -68 142 0
143 -127 0
143 -142 0
127 142 -143 0
-143 128 -144 0
143 -128 -144 0
-143 -128 144 0
143 128 144 0
145 141 0
145 -144 0
-141 144 -145 0
146 -132 0
146 -145 0
132 145 -146 0
147 43 0
147 -13 0
-43 13 -147 0
29 147 -148 0
-29 -147 -148 0
29 -147 148 0
-29 147 148 0
-149 -34 0
-149 45 0
34 -45 149 0
-149 -36 -150 0
149 36 -150 0
-149 36 150 0
149 -36 150 0
47 -151 -152 0
-47 151 -152 0
47 151 152 0
-47 -151 152 0
153 -152 0
153 119 0
152 -119 -153 0
154 -39 0
154 153 0
39 -153 -154 0
23 77 -155 0
-23 -77 -155 0
23 -77 155 0
-23 77 155 0
156 -1 0
156 155 0
1 -155 -156 0
-157 154 0
-157 -156 0
-154 156 157 0
-150 -157 -158 0
150 157 -158 0
-150 157 158 0
150 -157 158 0
158 103 -159 0
-158 -103 -159 0
158 -103 159 0
-158 103 159 0
160 148 0
160 159 0
-148 -159 -160 0
67 -34 -161 0
-67 34 -161 0
67 34 161 0
-67 -34 161 0
161 -104 -162 0
-161 104 -162 0
161 104 162 0
-161 -104 162 0
-163 160 0
-163 162 0
-160 -162 163 0
164 146 0
164 -163 0
-146 163 -164 0
98 164 -165 0
-98 -164 -165 0
98 -164 165 0
-98 164 165 0
-45 -8 -166 0
45 8 -166 0
-45 8 166 0
45 -8 166 0
167 166 0
167 -32 0
-166 32 -167 0
-47 151 -168 0
47 -151 -168 0
-47 -151 168 0
47 151 168 0
-113 -57 -169 0
113 57 -169 0
-113 57 169 0
113 -57 169 0
170 168 0
170 -169 0
-168 169 -170 0
-171 -167 0
-171 -170 0
167 170 171 0
-172 -5 0
-172 -150 0
5 150 172 0
173 -24 0
173 25 0
24 -25 -173 0
-174 -172 0
-174 173 0
172 -173 174 0
-175 -171 0
-175 -174 0
171 174 175 0
-176 127 0
-176 71 0
-127 -71 176 0
177 19 0
177 -89 0
-19 89 -177 0
178 -64 0
178 17 0
64 -17 -178 0
179 -70 0
179 178 0
70 -178 -179 0
-180 -16 0
-180 8 0
16 -8 180 0
179 -180 -181 0
-179 180 -181 0
179 180 181 0
-179 -180 181 0
182 177 0
182 181 0
-177 -181 -182 0
-47 -180 -183 0
47 180 -183 0
-47 180 183 0
47 -180 183 0
182 183 -184 0
-182 -183 -184 0
182 -183 184 0
-182 183 184 0
176 184 -185 0
-176 -184 -185 0
176 -184 185 0
-176 184 185 0
186 21 0
186 -64 0
-21 64 -186 0
186 24 -187 0
-186 -24 -187 0
186 -24 187 0
-186 24 187 0
187 -27 -188 0
-187 27 -188 0
187 27 188 0
-187 -27 188 0
57 -188 -189 0
-57 188 -189 0
57 188 189 0
-57 -188 189 0
-190 -65 0
-190 -7 0
65 7 190 0
-191 190 0
-191 102 0
-190 -102 191 0
-192 189 0
-192 -191 0
-189 191 192 0
-193 -185 0
-193 192 0
185 -192 193 0
194 -155 0
194 -79 0
155 79 -194 0
195 3 0
195 -86 0
-3 86 -195 0
-196 -90 0
-196 195 0
90 -195 196 0
-197 -196 0
-197 -17 0
196 17 197 0
197 -12 -198 0
-197 12 -198 0
197 12 198 0
-197 -12 198 0
-199 198 0
-199 25 0
-198 -25 199 0
-200 -194 0
-200 -199 0
194 199 200 0
201 193 0
201 200 0
-193 -200 -201 0
202 -27 0
202 -38 0
27 38 -202 0
203 -202 0
203 -190 0
202 190 -203 0
-59 31 -204 0
59 -31 -204 0
-59 -31 204 0
59 31 204 0
-205 149 0
-205 -204 0
-149 204 205 0
206 -205 0
206 66 0
205 -66 -206 0
-207 -84 0
-207 -206 0
84 206 207 0
208 90 0
208 24 0
-90 -24 -208 0
-209 208 0
-209 -19 0
-208 19 209 0
-210 -17 0
-210 -21 0
17 21 210 0
-211 -61 0
-211 -210 0
61 210 211 0
212 19 0
212 44 0
-19 -44 -212 0
-213 102 0
-213 212 0
-102 -212 213 0
214 213 0
214 212 0
-213 -212 -214 0
46 -214 -215 0
-46 214 -215 0
46 214 215 0
-46 -214 215 0
-216 -211 0
-216 -215 0
211 215 216 0
-209 216 -217 0
209 -216 -217 0
-209 -216 217 0
209 216 217 0
-218 -49 0
-218 33 0
49 -33 218 0
219 217 0
219 218 0
-217 -218 -219 0
-220 207 0
-220 -219 0
-207 219 220 0
-221 -203 0
-221 -220 0
203 220 221 0
222 201 0
222 -221 0
-201 221 -222 0
223 -175 0
223 -222 0
175 222 -223 0
224 -11 0
224 150 0
11 -150 -224 0
-225 -13 0
-225 46 0
13 -46 225 0
-226 224 0
-226 225 0
-224 -225 226 0
139 107 -227 0
-139 -107 -227 0
139 -107 227 0
-139 107 227 0
-228 76 0
-228 -32 0
-76 32 228 0
229 227 0
229 -228 0
-227 228 -229 0
-186 -23 -230 0
186 23 -230 0
-186 23 230 0
186 -23 230 0
-231 230 0
-231 -20 0
-230 20 231 0
-232 231 0
-232 -27 0
-231 27 232 0
-233 135 0
-233 -45 0
-135 45 233 0
234 31 0
234 9 0
-31 -9 -234 0
235 -234 0
235 -8 0
234 8 -235 0
-233 -235 -236 0
233 235 -236 0
-233 235 236 0
233 -235 236 0
-237 -232 0
-237 236 0
232 -236 237 0
-234 57 -238 0
234 -57 -238 0
-234 -57 238 0
234 57 238 0
-239 237 0
-239 238 0
-237 -238 239 0
240 -229 0
240 239 0
229 -239 -240 0
241 187 0
241 31 0
-187 -31 -241 0
242 -190 0
242 -241 0
190 241 -242 0
-243 59 0
-243 -242 0
-59 242 243 0
244 243 0
244 -103 0
-243 103 -244 0
-234 -91 -245 0
234 91 -245 0
-234 91 245 0
234 -91 245 0
-246 -244 0
-246 245 0
244 -245 246 0
-247 149 0
-247 -76 0
-149 76 247 0
248 247 0
248 -26 0
-247 26 -248 0
-249 -248 0
-249 153 0
248 -153 249 0
-251 17 0
-251 -250 0
-17 250 251 0
252 249 0
252 251 0
-249 -251 -252 0
246 252 -253 0
-246 -252 -253 0
246 -252 253 0
-246 252 253 0
254 240 0
254 -253 0
-240 253 -254 0
-226 -254 -255 0
226 254 -255 0
-226 254 255 0
226 -254 255 0
-256 -234 0
-256 230 0
234 -230 256 0
148 -199 -257 0
-148 199 -257 0
148 199 257 0
-148 -199 257 0
190 257 -258 0
-190 -257 -258 0
190 -257 258 0
-190 257 258 0
-256 258 -259 0
256 -258 -259 0
-256 -258 259 0
256 258 259 0
-17 5 -260 0
17 -5 -260 0
-17 -5 260 0
17 5 260 0
261 186 0
261 100 0
-186 -100 -261 0
-262 260 0
-262 261 0
-260 -261 262 0
-263 259 0
-263 -262 0
-259 262 263 0
-264 8 0
-264 32 0
-8 -32 264 0
-210 264 -265 0
210 -264 -265 0
-210 -264 265 0
210 264 265 0
-210 144 -266 0
210 -144 -266 0
-210 -144 266 0
210 144 266 0
267 -265 0
267 266 0
265 -266 -267 0
-268 -118 0
-268 6 0
118 -6 268 0
268 208 -269 0
-268 -208 -269 0
268 -208 269 0
-268 208 269 0
270 114 0
270 -36 0
-114 36 -270 0
-271 228 0
-271 270 0
-228 -270 271 0
-66 44 -272 0
66 -44 -272 0
-66 -44 272 0
66 44 272 0
-271 -272 -273 0
271 272 -273 0
-271 272 273 0
271 -272 273 0
-274 269 0
-274 -273 0
-269 273 274 0
275 267 0
275 274 0
-267 -274 -275 0
276 263 0
276 275 0
-263 -275 -276 0
255 276 -277 0
-255 -276 -277 0
255 -276 277 0
-255 276 277 0
-223 277 -278 0
223 -277 -278 0
-223 -277 278 0
223 277 278 0
279 18 0
279 -9 0
-18 9 -279 0
-204 93 -280 0
204 -93 -280 0
-204 -93 280 0
204 93 280 0
281 -280 0
281 150 0
280 -150 -281 0
282 -79 0
282 -137 0
79 137 -282 0
283 -281 0
283 282 0
281 -282 -283 0
-284 279 0
-284 -283 0
-279 283 284 0
247 21 -285 0
-247 -21 -285 0
247 -21 285 0
-247 21 285 0
141 -285 -286 0
-141 285 -286 0
141 285 286 0
-141 -285 286 0
-287 -114 0
-287 86 0
114 -86 287 0
288 120 0
288 287 0
-120 -287 -288 0
-289 286 0
-289 -288 0
-286 288 289 0
-290 147 0
-290 270 0
-147 -270 290 0
291 -290 0
291 -26 0
290 26 -291 0
-292 86 0
-292 -55 0
-86 55 292 0
-293 -291 0
-293 -292 0
291 292 293 0
-294 44 0
-294 -202 0
-44 202 294 0
295 -294 0
295 156 0
294 -156 -295 0
295 -36 -296 0
-295 36 -296 0
295 36 296 0
-295 -36 296 0
-297 33 0
-297 -43 0
-33 43 297 0
298 -296 0
298 -297 0
296 297 -298 0
299 293 0
299 298 0
-293 -298 -299 0
-300 289 0
-300 299 0
-289 -299 300 0
284 300 -301 0
-284 -300 -301 0
284 -300 301 0
-284 300 301 0
302 -278 0
302 301 0
278 -301 -302 0
303 165 0
303 -302 0
-165 302 -303 0
-304 20 0
-304 -227 0
-20 227 304 0
-305 5 0
-305 304 0
-5 -304 305 0
-99 -12 -306 0
99 12 -306 0
-99 12 306 0
99 -12 306 0
-235 306 -307 0
235 -306 -307 0
-235 -306 307 0
235 306 307 0
-308 187 0
-308 18 0
-187 -18 308 0
309 -65 0
309 -213 0
65 213 -309 0
310 308 0
310 309 0
-308 -309 -310 0
-311 310 0
-311 37 0
-310 -37 311 0
312 -307 0
312 311 0
307 -311 -312 0
313 -305 0
313 312 0
305 -312 -313 0
46 -82 -314 0
-46 82 -314 0
46 82 314 0
-46 -82 314 0
315 127 0
315 314 0
-127 -314 -315 0
-38 -208 -316 0
38 208 -316 0
-38 208 316 0
38 -208 316 0
-317 81 0
-317 9 0
-81 -9 317 0
-228 317 -318 0
228 -317 -318 0
-228 -317 318 0
228 317 318 0
-319 -316 0
-319 318 0
316 -318 319 0
-320 315 0
-320 319 0
-315 -319 320 0
321 159 0
321 235 0
-159 -235 -321 0
-322 71 0
-322 161 0
-71 -161 322 0
323 54 0
323 322 0
-54 -322 -323 0
-324 -12 0
-324 -323 0
12 323 324 0
-321 324 -325 0
321 -324 -325 0
-321 -324 325 0
321 324 325 0
326 -202 0
326 -59 0
202 59 -326 0
327 190 0
327 -326 0
-190 326 -327 0
-328 325 0
-328 327 0
-325 -327 328 0
-329 320 0
-329 -328 0
-320 328 329 0
330 -70 0
330 78 0
70 -78 -330 0
91 -109 -331 0
-91 109 -331 0
91 109 331 0
-91 -109 331 0
332 330 0
332 331 0
-330 -331 -332 0
-21 156 -333 0
21 -156 -333 0
-21 -156 333 0
21 156 333 0
-334 -7 0
-334 3 0
7 -3 334 0
333 -334 -335 0
-333 334 -335 0
333 334 335 0
-333 -334 335 0
336 -4 0
336 -257 0
4 257 -336 0
-337 -335 0
-337 336 0
335 -336 337 0
338 66 0
338 -228 0
-66 228 -338 0
-339 -114 0
-339 -48 0
114 48 339 0
340 89 0
340 339 0
-89 -339 -340 0
-341 338 0
-341 340 0
-338 -340 341 0
90 45 -342 0
-90 -45 -342 0
90 -45 342 0
-90 45 342 0
343 342 0
343 129 0
-342 -129 -343 0
344 149 0
344 -343 0
-149 343 -344 0
-345 196 0
-345 45 0
-196 -45 345 0
-346 9 0
-346 -345 0
-9 345 346 0
347 -344 0
347 -346 0
344 346 -347 0
348 341 0
348 -347 0
-341 347 -348 0
-337 348 -349 0
337 -348 -349 0
-337 -348 349 0
337 348 349 0
350 332 0
350 -349 0
-332 349 -350 0
212 -30 -351 0
-212 30 -351 0
212 30 351 0
-212 -30 351 0
-352 351 0
-352 58 0
-351 -58 352 0
-353 -66 0
-353 244 0
66 -244 353 0
352 353 -354 0
-352 -353 -354 0
352 -353 354 0
-352 353 354 0
139 -15 -355 0
-139 15 -355 0
139 15 355 0
-139 -15 355 0
-356 -138 0
-356 355 0
138 -355 356 0
357 -354 0
357 -356 0
354 356 -357 0
-358 62 0
-358 -230 0
-62 230 358 0
359 -358 0
359 231 0
358 -231 -359 0
-360 -37 0
-360 -67 0
37 67 360 0
361 -359 0
361 -360 0
359 360 -361 0
362 16 0
362 -339 0
-16 339 -362 0
361 -362 -363 0
-361 362 -363 0
361 362 363 0
-361 -362 363 0
357 363 -364 0
-357 -363 -364 0
357 -363 364 0
-357 363 364 0
-13 -57 -365 0
13 57 -365 0
-13 57 365 0
13 -57 365 0
-364 -365 -366 0
364 365 -366 0
-364 365 366 0
364 -365 366 0
367 30 0
367 -13 0
-30 13 -367 0
-368 -3 0
-368 -367 0
3 367 368 0
-369 264 0
-369 -228 0
-264 228 369 0
370 368 0
370 -369 0
-368 369 -370 0
-371 108 0
-371 -352 0
-108 352 371 0
372 67 0
372 59 0
-67 -59 -372 0
373 -371 0
373 -372 0
371 372 -373 0
370 373 -374 0
-370 -373 -374 0
370 -373 374 0
-370 373 374 0
-119 -79 -375 0
119 79 -375 0
-119 79 375 0
119 -79 375 0
-376 375 0
-376 333 0
-375 -333 376 0
61 77 -377 0
-61 -77 -377 0
61 -77 377 0
-61 77 377 0
28 15 -378 0
-28 -15 -378 0
28 -15 378 0
-28 15 378 0
-334 -378 -379 0
334 378 -379 0
-334 378 379 0
334 -378 379 0
380 -377 0
380 -379 0
377 379 -380 0
-381 -143 0
-381 -204 0
143 204 381 0
382 380 0
382 381 0
-380 -381 -382 0
-383 -376 0
-383 -382 0
376 382 383 0
-374 383 -384 0
374 -383 -384 0
-374 -383 384 0
374 383 384 0
385 -366 0
385 384 0
366 -384 -385 0
-151 -109 -386 0
151 109 -386 0
-151 109 386 0
151 -109 386 0
-387 386 0
-387 -77 0
-386 77 387 0
-388 29 0
-388 -138 0
-29 138 388 0
-389 -388 0
-389 -81 0
388 81 389 0
-390 135 0
-390 389 0
-135 -389 390 0
-391 -387 0
-391 390 0
387 -390 391 0
392 -385 0
392 391 0
385 -391 -392 0
393 350 0
393 -392 0
-350 392 -393 0
329 -393 -394 0
-329 393 -394 0
329 393 394 0
-329 -393 394 0
-313 -394 -395 0
313 394 -395 0
-313 394 395 0
313 -394 395 0
396 -323 0
396 355 0
323 -355 -396 0
-102 29 -397 0
102 -29 -397 0
-102 -29 397 0
102 29 397 0
-398 -199 0
-398 397 0
199 -397 398 0
399 396 0
399 398 0
-396 -398 -399 0
-400 343 0
-400 314 0
-343 -314 400 0
401 -339 0
401 -15 0
339 15 -401 0
402 400 0
402 -401 0
-400 401 -402 0
-403 7 0
-403 -194 0
-7 194 403 0
-404 -402 0
-404 -403 0
402 403 404 0
-405 -399 0
-405 404 0
399 -404 405 0
406 326 0
406 91 0
-326 -91 -406 0
-407 -39 0
-407 406 0
39 -406 407 0
-136 -84 -408 0
136 84 -408 0
-136 84 408 0
136 -84 408 0
409 -407 0
409 -408 0
407 408 -409 0
410 -405 0
410 -409 0
405 409 -410 0
-411 -18 0
-411 -38 0
18 38 411 0
-412 410 0
-412 -411 0
-410 411 412 0
-413 29 0
-413 142 0
-29 -142 413 0
-414 -6 0
-414 13 0
6 -13 414 0
70 414 -415 0
-70 -414 -415 0
70 -414 415 0
-70 414 415 0
413 415 -416 0
-413 -415 -416 0
413 -415 416 0
-413 415 416 0
-416 400 -417 0
416 -400 -417 0
-416 -400 417 0
416 400 417 0
418 -195 0
418 -62 0
195 62 -418 0
73 154 -419 0
-73 -154 -419 0
73 -154 419 0
-73 154 419 0
420 -30 0
420 -419 0
30 419 -420 0
421 -133 0
421 -306 0
133 306 -421 0
420 -421 -422 0
-420 421 -422 0
420 421 422 0
-420 -421 422 0
423 -9 0
423 5 0
9 -5 -423 0
-424 422 0
-424 423 0
-422 -423 424 0
-425 -418 0
-425 -424 0
418 424 425 0
-426 -417 0
-426 -425 0
417 425 426 0
-412 426 -427 0
412 -426 -427 0
-412 -426 427 0
412 426 427 0
-428 -294 0
-428 -230 0
294 230 428 0
155 57 -429 0
-155 -57 -429 0
155 -57 429 0
-155 57 429 0
-430 -194 0
-430 -204 0
194 204 430 0
-431 -178 0
-431 -1 0
178 1 431 0
-432 431 0
-432 228 0
-431 -228 432 0
433 -388 0
433 -73 0
388 73 -433 0
-434 432 0
-434 433 0
-432 -433 434 0
-435 -430 0
-435 434 0
430 -434 435 0
436 429 0
436 -435 0
-429 435 -436 0
-437 83 0
-437 58 0
-83 -58 437 0
438 437 0
438 227 0
-437 -227 -438 0
439 26 0
439 -130 0
-26 130 -439 0
440 -439 0
440 137 0
439 -137 -440 0
-230 -77 -441 0
230 77 -441 0
-230 77 441 0
230 -77 441 0
-10 83 -442 0
10 -83 -442 0
-10 -83 442 0
10 83 442 0
443 441 0
443 442 0
-441 -442 -443 0
406 -190 -444 0
-406 190 -444 0
406 190 444 0
-406 -190 444 0
445 -443 0
445 444 0
443 -444 -445 0
446 -440 0
446 445 0
440 -445 -446 0
447 438 0
447 -446 0
-438 446 -447 0
-448 -436 0
-448 447 0
436 -447 448 0
27 -1 -449 0
-27 1 -449 0
27 1 449 0
-27 -1 449 0
450 -449 0
450 78 0
449 -78 -450 0
-451 -17 0
-451 70 0
17 -70 451 0
452 -450 0
452 -451 0
450 451 -452 0
-453 -448 0
-453 452 0
448 -452 453 0
-454 -285 0
-454 -8 0
285 8 454 0
-455 -67 0
-455 -454 0
67 454 455 0
456 -24 0
456 -367 0
24 367 -456 0
326 -90 -457 0
-326 90 -457 0
326 90 457 0
-326 -90 457 0
456 -457 -458 0
-456 457 -458 0
456 457 458 0
-456 -457 458 0
459 -270 0
459 -187 0
270 187 -459 0
-460 -458 0
-460 -459 0
458 459 460 0
455 -460 -461 0
-455 460 -461 0
455 460 461 0
-455 -460 461 0
-453 461 -462 0
453 -461 -462 0
-453 -461 462 0
453 461 462 0
428 -462 -463 0
-428 462 -463 0
428 462 463 0
-428 -462 463 0
-464 7 0
-464 -10 0
-7 10 464 0
465 55 0
465 5 0
-55 -5 -465 0
-466 -11 0
-466 -43 0
11 43 466 0
-467 77 0
-467 199 0
-77 -199 467 0
-468 -466 0
-468 -467 0
466 467 468 0
469 -465 0
469 468 0
465 -468 -469 0
-470 23 0
-470 187 0
-23 -187 470 0
471 -469 0
471 470 0
469 -470 -471 0
472 -464 0
472 471 0
464 -471 -472 0
-20 -93 -473 0
20 93 -473 0
-20 93 473 0
20 -93 473 0
-83 -473 -474 0
83 473 -474 0
-83 473 474 0
83 -473 474 0
-475 -79 0
-475 45 0
79 -45 475 0
-474 475 -476 0
474 -475 -476 0
-474 -475 476 0
474 475 476 0
-477 -472 0
-477 476 0
472 -476 477 0
-323 43 -478 0
323 -43 -478 0
-323 -43 478 0
323 43 478 0
-479 390 0
-479 478 0
-390 -478 479 0
-33 -68 -480 0
33 68 -480 0
-33 68 480 0
33 -68 480 0
17 -415 -481 0
-17 415 -481 0
17 415 481 0
-17 -415 481 0
342 481 -482 0
-342 -481 -482 0
342 -481 482 0
-342 481 482 0
483 480 0
483 -482 0
-480 482 -483 0
-484 479 0
-484 483 0
-479 -483 484 0
-134 -227 -485 0
134 227 -485 0
-134 227 485 0
134 -227 485 0
-486 -20 0
-486 36 0
20 -36 486 0
487 485 0
487 486 0
-485 -486 -487 0
-488 484 0
-488 -487 0
-484 487 488 0
477 -488 -489 0
-477 488 -489 0
477 488 489 0
-477 -488 489 0
463 -489 -490 0
-463 489 -490 0
463 489 490 0
-463 -489 490 0
-491 -427 0
-491 -490 0
427 490 491 0
395 -491 -492 0
-395 491 -492 0
395 491 492 0
-395 -491 492 0
-493 -303 0
-493 492 0
303 -492 493 0
242 -24 377 385 157 426 0
135 -87 -77 0
407 -493 -11 -488 -108 419 302 355 0
102 -478 86 -34 -471 -357 -141 0
51 353 -256 109 -413 0
-402 -119 -372 -45 464 0
229 -58 -443 192 417 65 180 -11 48 0
457 -202 -287 74 -451 -324 161 0
343 -129 138 291 -233 387 -170 -457 206 68 0
347 -253 109 -237 0
223 -470 359 -367 64 126 -269 -274 -400 291 0
468 -73 0
-317 404 453 -387 163 394 2 179 -153 -327 0
-8 -343 91 0
-331 -378 -164 -311 242 208 -411 0
34 -31 -38 358 187 -232 0
-454 -138 -424 0
179 -15 -198 209 109 43 -333 64 -35 0
-32 328 280 -222 -419 0
105 -287 139 -429 79 463 -322 0
329 5 -74 -172 0
8 -73 9 344 414 -319 -303 200 340 0
-344 -158 0
170 -381 412 268 -222 432 452 0
-69 409 73 -385 438 0
-471 -478 -340 -42 227 341 -224 342 251 186 0
214 322 87 85 -3 -266 -155 0
271 342 -221 475 0
-458 459 251 326 157 193 144 6 -3 -194 0
316 332 -159 429 0
87 62 -184 -75 115 69 429 -195 0
193 34 -41 -334 249 -58 -22 -51 -114 -409 0
256 351 -259 -195 -43 0
59 -393 452 366 -12 -402 0
-73 141 -407 334 405 -273 64 480 0
-165 10 -213 331 -279 446 0
17 -187 -191 200 0
453 378 226 0
-353 274 -223 170 65 275 -98 407 -369 0
216 -11 -314 0
-82 158 263 383 -17 395 156 -131 0
-449 -23 -273 181 217 0
-214 364 340 -381 -187 428 249 -413 0
-86 60 -350 77 289 483 74 -43 0
253 -34 233 149 -483 -99 -302 0
-253 395 84 81 453 491 186 477 -303 0
-484 28 78 119 0
492 359 283 173 -232 200 -175 304 0
149 26 -146 328 0
374 61 -268 -157 -455 -389 -130 10 -432 0
100 422 373 295 286 36 0
-431 -390 -183 -39 -141 359 172 0
283 -192 -371 0
407 333 34 420 -57 -97 0
-7 474 117 -200 -147 91 -361 -78 -139 -81 0
193 125 293 49 0
-30 -308 -126 -492 -129 -261 342 0
303 -198 163 -49 464 0
155 270 -305 194 91 144 -422 427 0
380 176 -292 457 299 113 80 0
-296 -181 -339 -12 -469 -17 -263 -403 0
121 -134 342 -218 0
422 408 439 18 -282 363 -115 0
-335 -155 -387 365 322 0
94 289 331 -137 0
336 -170 406 -276 220 449 0
1 491 399 100 -252 -485 0
-319 -312 0
-92 274 295 -448 -194 -36 142 -320 484 -293 0
78 -271 -329 -460 0
-229 -5 133 108 118 -269 -32 489 146 340 0
-195 -346 -338 131 -94 -153 0
-85 -169 393 -492 -132 401 303 59 425 299 0
17 -379 -381 -198 -100 303 -244 0
430 199 410 261 347 422 487 -140 383 -475 0
-101 -68 291 313 -133 484 -272 -57 303 -332 0
-376 157 -254 -296 -64 359 -435 0
-192 -37 -197 281 114 437 211 0
-281 100 -171 110 -471 -388 308 0
-420 -299 475 -166 197 75 209 388 351 0
384 68 -273 -350 422 -405 430 -284 0
-188 -387 -7 -423 124 0
-261 -168 416 0
421 193 37 -477 303 -82 283 -417 -411 136 0
108 423 438 -92 -459 381 0
347 291 -105 93 444 5 335 0
-425 -200 -180 -429 96 157 252 276 206 277 0
-208 400 -358 0
224 73 -45 -211 0
182 -260 439 -267 -128 235 0
-180 275 -294 94 -40 462 0
-64 -8 -49 158 -119 204 0
-391 461 301 33 70 458 427 -96 361 0
295 491 0
-181 230 437 -254 -382 424 0
333 -434 0
30 -300 -95 0
-60 -166 -344 -251 274 -127 -172 152 0
107 -123 -325 131 -61 97 0
343 -163 5 95 57 -230 -286 0
479 -69 68 359 0
-164 6 -470 24 -446 -53 394 0
478 -198 4 86 0
117 -463 451 258 112 0
74 -96 13 -169 -283 -173 243 292 215 0
-12 -250 -385 -204 -440 70 0
36 -58 12 -462 -79 256 376 0
-420 148 452 0
122 293 0
364 341 399 0
267 -278 210 -63 430 180 -262 0
-268 21 197 218 -58 -457 307 -356 0
101 -342 -375 237 -417 0
414 352 299 446 124 -184 -161 435 301 -139 0
-340 70 54 267 0
-411 429 -427 225 -412 230 -301 -474 93 213 0
403 406 353 -1 -442 0
289 -264 -248 -431 -180 34 0
32 404 -250 107 33 -200 269 0
86 310 199 -390 -376 344 266 288 0
315 -426 0
316 243 100 -185 65 -208 -70 -255 375 -55 0
-109 96 439 348 296 -228 -357 -46 237 0
335 -52 387 -219 467 120 0
345 436 125 -270 388 0
-348 -207 -302 -177 223 -21 -353 -466 327 103 0
210 -278 0
-8 234 -100 48 402 -318 0
310 116 294 -389 -25 180 -86 -345 451 0
7 465 334 -125 -306 -302 -300 -403 0
-383 -161 48 0
-141 444 43 277 0
-277 217 -415 0
155 -203 -97 66 -427 274 423 -46 0
175 -442 -130 0
-181 485 309 82 301 0
379 422 -346 0
293 -198 -239 -108 -154 -315 -222 -403 65 -275 0
345 364 0
25 -8 112 239 6 0
-298 -413 269 -77 475 -310 400 -92 0
430 -458 226 51 -334 424 0
218 -347 -313 0
-249 -433 386 262 383 457 152 320 0
-17 -60 0
-28 -150 80 -113 -243 146 186 -81 -365 0
70 -285 372 -373 256 -95 -298 0
168 -261 -409 65 -81 -48 -423 -263 -262 -365 0
-167 -381 205 -27 -107 0
-207 -126 -392 -208 -124 -309 307 0
-275 25 461 0
-394 -265 300 364 -428 -196 0
98 166 -144 -134 306 0
-400 258 -395 357 63 162 70 -106 0
47 260 375 -71 -361 -278 130 217 147 36 0
199 -310 0
381 408 0
-263 -355 -25 344 -260 449 -357 -459 101 0
470 -308 212 26 123 58 357 -462 0
201 442 61 50 -82 261 76 -193 197 -361 0
-317 28 309 459 0
-219 -306 143 -456 -445 -96 437 121 -23 236 0
34 -471 -165 -360 489 0
272 -94 0
-232 257 -142 -113 53 235 65 384 -135 460 0
-71 351 0
-361 29 295 -127 214 0
-161 183 -405 294 40 -81 490 -420 -256 0
366 342 -16 448 99 -318 333 -198 0
452 339 -216 -413 -461 -5 -487 -219 409 0
139 -287 222 66 -209 37 437 -424 0
249 -302 166 8 128 0
-88 398 486 -220 376 206 -261 -419 -475 -491 0
76 -403 400 -56 266 -469 0
477 270 0
303 149 -133 -222 200 0
-11 -154 0
276 -397 0
468 334 -449 -317 -267 0
401 410 -188 0
-25 -438 145 -11 -39 -355 0
270 98 -294 -58 129 439 91 428 0
361 89 144 122 154 327 -11 -137 0
324 -73 -323 0
320 -148 -85 0
-473 95 459 97 337 -87 380 69 0
90 -114 -309 -486 -475 0
430 405 317 0
-2 198 343 -142 158 0
280 -152 -410 -400 -46 -16 469 -223 169 -458 0
191 -461 -165 -134 0
-358 293 -484 87 269 -11 0
-355 -397 0
-174 -97 0
-456 461 -221 135 -241 0
31 -118 52 0
142 -439 0
-183 -447 17 208 156 -477 28 0
-407 291 -159 19 0
315 419 -187 327 -431 0
-446 -156 -83 493 -20 157 0
-354 35 406 411 121 -458 -211 0
1 -342 365 -83 -195 -301 -246 -170 180 0
111 399 0
202 217 463 -323 147 341 -116 0
-236 190 225 0
139 -488 -92 343 0
316 376 253 234 -44 0
-374 -244 479 0
-132 -455 0
490 354 407 368 -124 62 -332 0
-246 -160 163 -6 232 -22 206 296 -407 358 0
83 14 0
-2 117 0
-48 -469 159 318 -232 269 0
479 302 -46 -152 -30 196 -235 428 27 0
-141 -449 -433 486 225 0
181 299 56 -92 -382 -97 285 -227 223 -263 0
-154 152 -340 399 345 157 0
414 -394 0
379 -176 95 -326 0
440 -361 -29 246 326 372 0
388 333 0
-117 167 -22 68 -428 218 -72 -490 178 0
81 20 466 376 0
-280 452 -200 239 -416 113 22 275 286 0
302 177 -3 0
-330 -397 0
404 -402 -493 -199 -213 -399 -322 304 0
287 435 18 438 472 341 -166 32 0
447 -18 406 33 -254 347 -290 -45 0
485 -253 444 -463 0
17 -469 329 141 -287 -7 332 471 385 0
-139 308 -31 0
-468 -481 370 0
425 106 -399 -438 37 -307 -491 0
-490 -169 -313 0
453 330 0
-104 -362 207 -365 0
128 108 -403 -259 -61 335 81 0
457 -236 333 257 -380 -487 194 0
1 -4 139 -63 7 -115 0
450 55 -456 326 183 126 0
-153 12 267 0
-115 -103 0
-112 -73 -402 424 -193 -341 259 0
189 -452 -102 -455 0
-167 5 188 245 -229 -258 319 0
-218 -65 -50 88 0
-4 -400 75 161 -343 0
483 -196 0
-30 -96 -414 336 -307 -390 -217 -417 0
-259 -45 -337 250 -141 0
-322 -211 -409 0
-273 -464 -431 -130 -239 -492 460 0
81 -389 -183 -273 0
-105 -420 -58 0
205 343 -347 44 381 443 0
-324 -88 252 0
132 289 427 -54 73 273 0
393 -422 184 463 132 -307 99 0
-365 94 -164 386 -98 430 -330 -310 0
63 -134 349 0
-373 247 -305 317 241 -117 0
276 -205 -12 -407 265 -311 305 0
-157 -406 -446 109 76 0
-364 251 215 -7 -61 176 -104 0
-163 -332 -160 184 0
-103 428 28 -301 -190 337 0
-139 -175 34 -207 226 -344 407 451 0
-388 176 -63 409 369 -72 -223 -261 326 -451 0
-255 482 414 -364 -139 0
94 128 -417 143 7 0
346 466 -264 375 73 353 -156 212 201 2 0
-3 -464 274 -415 479 -360 139 0
-142 147 -360 -70 0
-466 -283 -317 39 -184 0
316 -449 0
271 484 476 353 -314 71 -54 139 0
358 -8 0
-331 74 65 -286 97 223 -215 0
422 -188 6 -48 -84 52 0
94 -314 463 96 20 28 114 -386 -396 -148 0
394 209 184 194 -432 -175 -114 0
410 298 260 0
128 -202 217 -167 0
146 321 -102 -192 -434 -164 -183 -30 -404 205 0
440 272 -38 15 -447 318 423 362 484 0
-406 -184 0
228 -262 -427 -13 -451 -349 -350 418 -147 0
165 -54 487 25 350 331 18 -447 -179 -193 0
72 -282 0
136 -54 -405 251 75 273 0
278 144 -458 356 -405 51 0
485 -467 -341 414 250 224 0
-16 -478 0
278 -138 451 403 387 281 -226 -336 469 0
-322 133 431 266 224 -485 -24 187 0
493 0
